language ESSENCE' 1.0

letting jobs = 102
letting horizon = 798
letting resourcesRenew = 2
letting resourcesNonrenew = 2
letting resourceLimits = [17, 22, 163, 150]
letting successors = [[2, 3, 5, 6, 7, 8, 9, 10, 12, 14, 17, 18, 19, 20, 22, 24, 26, 36], [42, 34, 31, 27, 25, 23, 16, 11, 4], [54, 45, 40, 37, 30, 29, 28, 27, 21, 13], [54, 49, 47, 45, 43, 41, 40, 39, 33, 32, 30, 15], [54, 53, 52, 46, 45, 42, 41, 39, 38, 37, 35, 34, 33, 32, 30, 29], [64, 54, 49, 47, 44, 43, 42, 41, 40, 39, 37, 33, 32, 30, 28], [64, 56, 54, 45, 44, 43, 39, 38, 33, 30, 28, 23], [56, 54, 53, 45, 44, 41, 38, 34, 33, 32, 31, 30, 28], [43, 40, 38, 37, 32, 11], [71, 65, 58, 53, 52, 46, 43, 42, 40, 38, 37, 35, 34], [64, 63, 62, 58, 56, 54, 52, 51, 48, 46, 45, 41, 39, 33], [56, 54, 52, 47, 46, 39, 37, 34, 30], [62, 59, 49, 48, 44, 42, 41, 38, 33, 31], [65, 64, 63, 62, 58, 56, 51, 47, 45, 40, 39, 38, 33], [64, 63, 60, 56, 51, 48, 44, 38, 37, 28], [64, 63, 62, 59, 58, 53, 52, 51, 49, 48, 47, 44, 33], [60, 54, 53, 50, 48, 46, 44, 42, 41, 39, 34], [64, 61, 52, 50, 47, 44, 32, 31], [62, 61, 60, 59, 58, 56, 54, 51, 48, 46, 45, 44, 38], [65, 64, 62, 59, 54, 53, 50, 49, 46, 42, 35], [63, 60, 58, 56, 51, 44, 41, 39, 38, 34], [64, 59, 54, 48, 38, 35, 29], [80, 71, 62, 61, 60, 52, 51, 47, 41, 37], [84, 71, 68, 65, 62, 61, 60, 59, 54, 47, 44, 40], [71, 69, 68, 67, 65, 63, 61, 60, 51, 44, 38], [84, 65, 64, 61, 59, 56, 52, 46, 44], [65, 64, 63, 59, 33], [84, 71, 61, 59, 58, 57, 55, 52, 46], [74, 69, 68, 65, 60, 58, 56, 51, 47], [80, 71, 70, 69, 66, 60, 58, 51, 48], [83, 77, 74, 71, 69, 68, 67, 66, 63, 58, 55, 51], [99, 84, 82, 74, 73, 69, 66, 62, 60, 55, 48], [84, 77, 69, 67, 66, 61, 60, 57, 50], [84, 82, 74, 68, 67, 64, 62, 61, 59, 55], [84, 73, 67, 61, 60, 44], [100, 98, 84, 77, 74, 72, 71, 69, 68, 67, 62, 60, 57], [84, 83, 79, 78, 77, 69, 50], [99, 96, 84, 83, 82, 81, 79, 78, 76, 74, 73, 72, 55], [100, 97, 82, 79, 78, 76, 72, 70, 68, 67, 59], [101, 100, 99, 98, 97, 96, 95, 92, 91, 82, 81, 79, 77, 74, 73, 70, 69], [100, 99, 97, 92, 91, 84, 81, 78, 74, 73, 70, 69, 65], [98, 83, 82, 81, 74, 72, 57, 56], [101, 100, 99, 98, 96, 83, 82, 79, 78, 77, 72, 63], [99, 96, 95, 83, 82, 80, 77, 76, 74, 66, 55], [100, 98, 96, 93, 92, 83, 81, 80, 78, 77, 76, 75, 73, 72, 71], [101, 98, 96, 83, 78, 74, 73, 72, 70, 69, 67, 66], [96, 82, 77, 76, 73, 72, 67, 55], [101, 97, 92, 83, 79, 78, 75, 72, 68, 65], [101, 100, 84, 81, 79, 78, 76, 72, 70, 57], [99, 82, 74, 72, 68, 55], [100, 98, 96, 93, 84, 81, 79, 75, 72, 57], [100, 99, 98, 92, 82, 79, 77, 73, 68, 66], [101, 100, 96, 94, 92, 76, 74, 72, 70, 67, 66], [101, 97, 96, 94, 82, 76, 70, 66], [101, 100, 98, 97, 93, 92, 91, 90, 86, 70], [100, 97, 96, 92, 76, 66], [99, 97, 95, 92, 91, 89, 87, 86, 85, 73], [101, 98, 95, 94, 92, 91, 90, 88, 82, 75], [101, 99, 93, 92, 90, 83, 77, 75], [97, 92, 89, 88, 86, 83, 81, 78], [98, 94, 93, 92, 91, 81, 75, 72], [101, 88, 81, 79, 78, 75], [92, 91, 86, 76, 75, 73], [97, 92, 91, 90, 85, 79, 76], [98, 96, 94, 90, 89, 77, 76], [93, 91, 87, 86, 75], [99, 93, 90, 88, 87, 85], [96, 95, 87, 86, 81], [93, 90, 89, 76], [88, 87, 75], [89, 88, 87, 86], [87, 86, 85], [94, 90, 88], [88, 86, 85], [89, 85], [88, 87], [87, 86], [95, 90], [94, 86], [97, 89], [85], [93], [91], [85], [102], [102], [102], [102], [102], [102], [102], [102], [102], [102], [102], [102], [102], [102], [102], [102], [102], []]
letting durations = [[0], [1, 5, 8], [7, 9, 10], [2, 3, 5], [2, 3, 9], [5, 7, 9], [1, 3, 7], [5, 6, 7], [3, 9, 9], [3, 8, 10], [1, 1, 2], [3, 5, 6], [7, 8, 9], [3, 7, 8], [1, 2, 6], [3, 8, 10], [6, 8, 9], [3, 4, 5], [1, 4, 7], [3, 8, 9], [2, 3, 10], [1, 2, 3], [1, 2, 7], [1, 6, 7], [1, 5, 8], [1, 9, 10], [4, 6, 8], [4, 9, 10], [6, 8, 9], [2, 3, 6], [1, 2, 10], [2, 8, 9], [2, 5, 8], [3, 3, 8], [1, 7, 9], [4, 5, 9], [4, 6, 10], [2, 6, 10], [2, 6, 8], [3, 6, 9], [1, 4, 6], [1, 2, 6], [1, 5, 8], [1, 1, 4], [1, 8, 9], [1, 4, 8], [4, 8, 9], [2, 3, 3], [7, 7, 8], [2, 3, 6], [2, 3, 6], [2, 2, 7], [4, 5, 7], [1, 4, 5], [5, 5, 9], [5, 6, 10], [5, 8, 10], [2, 3, 7], [3, 6, 9], [1, 7, 10], [2, 4, 7], [6, 9, 10], [1, 7, 10], [4, 6, 10], [6, 8, 10], [1, 5, 8], [7, 8, 10], [1, 2, 8], [6, 7, 8], [3, 6, 10], [5, 5, 10], [7, 8, 9], [1, 6, 7], [1, 2, 3], [1, 5, 6], [2, 4, 5], [2, 4, 5], [2, 3, 5], [3, 7, 8], [2, 5, 9], [5, 6, 7], [5, 5, 10], [1, 6, 9], [4, 5, 9], [1, 3, 10], [3, 9, 10], [7, 8, 9], [1, 2, 5], [6, 8, 9], [1, 6, 9], [1, 4, 8], [3, 4, 5], [2, 8, 9], [2, 6, 8], [5, 7, 8], [1, 3, 10], [3, 6, 10], [2, 7, 10], [5, 6, 9], [1, 2, 7], [1, 6, 9], [0]]
letting resourceUsage = [[[0, 0, 0, 0]], [[4, 5, 0, 3], [4, 4, 0, 1], [3, 2, 0, 1]], [[2, 2, 0, 5], [2, 1, 0, 4], [2, 1, 0, 3]], [[2, 5, 0, 8], [2, 4, 0, 7], [2, 4, 0, 5]], [[4, 5, 0, 7], [4, 4, 0, 5], [4, 3, 0, 3]], [[3, 3, 4, 0], [3, 2, 2, 0], [1, 2, 2, 0]], [[2, 4, 7, 0], [2, 3, 4, 0], [2, 2, 3, 0]], [[3, 4, 8, 0], [3, 3, 5, 0], [3, 3, 0, 6]], [[2, 5, 5, 0], [1, 4, 0, 2], [1, 3, 3, 0]], [[1, 4, 6, 0], [1, 3, 0, 6], [1, 3, 3, 0]], [[3, 4, 0, 9], [3, 4, 4, 0], [2, 4, 0, 7]], [[2, 3, 0, 7], [1, 3, 0, 6], [1, 3, 0, 4]], [[4, 4, 10, 0], [2, 4, 7, 0], [1, 4, 6, 0]], [[2, 3, 0, 4], [2, 2, 0, 3], [2, 2, 7, 0]], [[5, 5, 0, 5], [4, 3, 7, 0], [4, 2, 0, 2]], [[3, 3, 0, 6], [2, 2, 0, 4], [1, 1, 2, 0]], [[4, 5, 8, 0], [4, 4, 7, 0], [4, 4, 0, 1]], [[5, 5, 0, 6], [3, 4, 6, 0], [1, 2, 4, 0]], [[1, 4, 9, 0], [1, 4, 0, 6], [1, 3, 5, 0]], [[4, 5, 3, 0], [4, 3, 3, 0], [4, 2, 1, 0]], [[3, 4, 0, 3], [3, 3, 0, 2], [3, 1, 4, 0]], [[3, 4, 6, 0], [2, 3, 5, 0], [2, 3, 4, 0]], [[1, 4, 9, 0], [1, 4, 7, 0], [1, 4, 0, 2]], [[5, 2, 6, 0], [4, 2, 0, 3], [3, 2, 2, 0]], [[5, 4, 10, 0], [2, 2, 7, 0], [1, 2, 0, 2]], [[4, 5, 7, 0], [4, 5, 5, 0], [4, 5, 4, 0]], [[4, 1, 0, 5], [3, 1, 0, 4], [1, 1, 2, 0]], [[1, 4, 7, 0], [1, 3, 6, 0], [1, 2, 3, 0]], [[4, 4, 0, 9], [4, 4, 7, 0], [4, 2, 0, 3]], [[5, 1, 9, 0], [4, 1, 6, 0], [2, 1, 4, 0]], [[2, 4, 6, 0], [1, 4, 5, 0], [1, 4, 0, 7]], [[5, 3, 0, 7], [3, 3, 3, 0], [3, 3, 0, 2]], [[4, 5, 0, 6], [3, 3, 6, 0], [2, 2, 0, 3]], [[2, 4, 0, 2], [2, 2, 6, 0], [2, 1, 4, 0]], [[2, 3, 0, 5], [1, 3, 7, 0], [1, 2, 0, 1]], [[4, 5, 0, 6], [4, 3, 4, 0], [3, 2, 0, 5]], [[3, 2, 7, 0], [3, 1, 0, 3], [3, 1, 4, 0]], [[4, 4, 7, 0], [2, 3, 0, 1], [2, 1, 1, 0]], [[5, 3, 9, 0], [5, 3, 0, 5], [5, 3, 5, 0]], [[3, 4, 0, 8], [3, 2, 3, 0], [3, 2, 2, 0]], [[3, 5, 0, 9], [2, 4, 2, 0], [2, 3, 2, 0]], [[3, 3, 2, 0], [2, 3, 2, 0], [2, 3, 1, 0]], [[3, 3, 2, 0], [2, 2, 0, 2], [2, 1, 0, 1]], [[4, 3, 0, 5], [4, 3, 4, 0], [4, 3, 0, 3]], [[2, 2, 5, 0], [1, 2, 3, 0], [1, 2, 2, 0]], [[4, 4, 8, 0], [2, 4, 7, 0], [1, 4, 2, 0]], [[3, 3, 0, 7], [2, 3, 0, 6], [1, 1, 0, 3]], [[3, 4, 0, 6], [3, 2, 0, 6], [3, 2, 4, 0]], [[4, 4, 6, 0], [4, 2, 0, 6], [4, 1, 0, 1]], [[1, 2, 0, 7], [1, 2, 0, 5], [1, 2, 0, 2]], [[3, 5, 0, 2], [2, 3, 0, 1], [2, 2, 2, 0]], [[4, 3, 4, 0], [3, 2, 0, 8], [3, 2, 0, 6]], [[5, 3, 8, 0], [4, 3, 7, 0], [3, 1, 6, 0]], [[3, 4, 0, 6], [3, 4, 8, 0], [3, 4, 7, 0]], [[4, 4, 6, 0], [3, 3, 0, 4], [3, 2, 0, 3]], [[5, 4, 0, 3], [5, 4, 3, 0], [5, 4, 0, 1]], [[4, 4, 10, 0], [3, 4, 0, 8], [1, 3, 3, 0]], [[5, 5, 0, 8], [4, 5, 1, 0], [4, 5, 0, 7]], [[5, 4, 0, 3], [5, 3, 0, 2], [5, 3, 4, 0]], [[1, 4, 0, 10], [1, 4, 8, 0], [1, 4, 4, 0]], [[2, 5, 7, 0], [2, 5, 3, 0], [2, 5, 1, 0]], [[2, 3, 0, 6], [2, 2, 0, 5], [2, 2, 3, 0]], [[1, 3, 8, 0], [1, 2, 0, 3], [1, 1, 1, 0]], [[4, 1, 0, 8], [4, 1, 9, 0], [2, 1, 0, 1]], [[3, 2, 0, 9], [2, 2, 5, 0], [1, 2, 2, 0]], [[1, 3, 8, 0], [1, 2, 6, 0], [1, 1, 6, 0]], [[3, 5, 3, 0], [3, 3, 2, 0], [3, 1, 0, 1]], [[5, 2, 9, 0], [3, 2, 5, 0], [2, 2, 0, 6]], [[3, 4, 5, 0], [2, 4, 0, 7], [1, 4, 0, 6]], [[4, 1, 6, 0], [3, 1, 3, 0], [2, 1, 0, 3]], [[3, 4, 0, 10], [3, 2, 1, 0], [3, 2, 0, 4]], [[2, 3, 0, 7], [2, 3, 3, 0], [1, 3, 1, 0]], [[2, 3, 0, 5], [1, 2, 3, 0], [1, 2, 0, 5]], [[4, 4, 9, 0], [4, 4, 8, 0], [3, 4, 0, 3]], [[4, 3, 0, 8], [3, 3, 4, 0], [3, 2, 4, 0]], [[4, 5, 2, 0], [3, 3, 2, 0], [3, 3, 0, 1]], [[5, 4, 8, 0], [3, 3, 3, 0], [3, 3, 1, 0]], [[3, 5, 0, 6], [3, 4, 0, 5], [3, 3, 0, 5]], [[4, 3, 0, 5], [4, 3, 0, 4], [4, 3, 5, 0]], [[5, 3, 8, 0], [3, 2, 5, 0], [3, 1, 3, 0]], [[2, 2, 0, 8], [1, 1, 0, 6], [1, 1, 0, 5]], [[1, 3, 1, 0], [1, 2, 0, 4], [1, 1, 1, 0]], [[3, 4, 0, 9], [3, 4, 4, 0], [2, 4, 4, 0]], [[3, 1, 7, 0], [3, 1, 0, 1], [3, 1, 2, 0]], [[1, 2, 6, 0], [1, 2, 3, 0], [1, 2, 1, 0]], [[3, 1, 3, 0], [3, 1, 2, 0], [3, 1, 0, 2]], [[5, 2, 6, 0], [4, 2, 6, 0], [2, 2, 6, 0]], [[4, 2, 9, 0], [3, 2, 0, 6], [3, 2, 0, 5]], [[4, 4, 0, 8], [4, 4, 0, 6], [2, 4, 0, 3]], [[2, 4, 0, 9], [2, 3, 0, 9], [2, 2, 0, 8]], [[3, 2, 5, 0], [2, 2, 0, 3], [1, 1, 0, 1]], [[5, 4, 0, 6], [5, 3, 3, 0], [5, 2, 1, 0]], [[2, 5, 0, 10], [1, 4, 0, 7], [1, 2, 6, 0]], [[5, 3, 0, 8], [3, 2, 0, 6], [2, 2, 0, 6]], [[3, 3, 0, 5], [1, 3, 0, 4], [1, 2, 0, 3]], [[4, 2, 10, 0], [3, 2, 0, 1], [1, 2, 0, 1]], [[5, 3, 0, 7], [5, 3, 0, 3], [5, 3, 4, 0]], [[2, 5, 5, 0], [2, 4, 3, 0], [2, 3, 2, 0]], [[4, 1, 0, 9], [4, 1, 0, 7], [4, 1, 0, 6]], [[2, 3, 10, 0], [1, 3, 0, 2], [1, 3, 0, 1]], [[4, 5, 3, 0], [4, 3, 0, 6], [2, 2, 0, 6]], [[0, 0, 0, 0]]]
